100
32
10
28
6
2
10
31
2
6
28
28
8
9
6
19
12
16
21
18
2
8
2
12
18
4
1
10
16
23
27
21
21
27
13
11
22
1
11
16
10
20
20
11
14
19
17
12
1
9
19
12
1
20
27
5
1
25
19
1
29
1
5
28
31
7
31
27
20
14
31
9
21
15
32
24
16
6
23
15
13
8
28
9
24
3
2
14
29
5
32
13
12
24
7
26
13
3
20
12
7
14